! 2-port fixture (synthetic array data), Touchstone v1
# GHz S MA R 50
1.000000 0.99944384 178.51906 0.07999995 -162.04995 0.07999995 -162.04995 0.99944384 178.51906
1.020000 0.99946386 177.95932 0.07999991 -163.49119 0.07999991 -163.49119 0.99946386 177.95932
1.040000 0.99946304 177.40738 0.07999952 -164.93207 0.07999952 -164.93207 0.99946304 177.40738
1.060000 0.99945634 176.86437 0.07999999 -166.37301 0.07999999 -166.37301 0.99945634 176.86437
1.080000 0.99947247 176.32747 0.07999963 -167.81385 0.07999963 -167.81385 0.99947247 176.32747
1.100000 0.99945712 175.79761 0.07999966 -169.25500 0.07999966 -169.25500 0.99945712 175.79761
1.120000 0.99946752 175.27440 0.08000047 -170.69592 0.08000047 -170.69592 0.99946752 175.27440
1.140000 0.99946341 174.75590 0.08000024 -172.13658 0.08000024 -172.13658 0.99946341 174.75590
1.160000 0.99945050 174.24326 0.07999999 -173.57803 0.07999999 -173.57803 0.99945050 174.24326
1.180000 0.99945699 173.73603 0.08000011 -175.01903 0.08000011 -175.01903 0.99945699 173.73603
1.200000 0.99944536 173.23165 0.07999967 -176.45972 0.07999967 -176.45972 0.99944536 173.23165
1.220000 0.99943774 172.73313 0.07999967 -177.90106 0.07999967 -177.90106 0.99943774 172.73313
1.240000 0.99943958 172.23700 0.08000028 -179.34180 0.08000028 -179.34180 0.99943958 172.23700
1.260000 0.99941580 171.74472 0.08000047 179.21718 0.08000047 179.21718 0.99941580 171.74472
1.280000 0.99940421 171.25654 0.08000024 177.77637 0.08000024 177.77637 0.99940421 171.25654
1.300000 0.99939287 170.76888 0.07999962 176.33485 0.07999962 176.33485 0.99939287 170.76888
1.320000 0.99936157 170.28498 0.08000047 174.89395 0.08000047 174.89395 0.99936157 170.28498
1.340000 0.99935511 169.80294 0.07999966 173.45330 0.07999966 173.45330 0.99935511 169.80294
1.360000 0.99932538 169.32167 0.08000019 172.01220 0.08000019 172.01220 0.99932538 169.32167
1.380000 0.99929375 168.84367 0.07999985 170.57100 0.07999985 170.57100 0.99929375 168.84367
1.400000 0.99928269 168.36509 0.08000029 169.13041 0.08000029 169.13041 0.99928269 168.36509
1.420000 0.99923729 167.88702 0.08000052 167.68940 0.08000052 167.68940 0.99923729 167.88702
1.440000 0.99921152 167.41124 0.08000015 166.24846 0.08000015 166.24846 0.99921152 167.41124
1.460000 0.99918125 166.93331 0.07999993 164.80751 0.07999993 164.80751 0.99918125 166.93331
1.480000 0.99912129 166.45696 0.08000058 163.36654 0.08000058 163.36654 0.99912129 166.45696
1.500000 0.99909159 165.98003 0.08000088 161.92516 0.08000088 161.92516 0.99909159 165.98003
1.520000 0.99901995 165.50027 0.08000121 160.48401 0.08000121 160.48401 0.99901995 165.50027
1.540000 0.99895713 165.02251 0.08000216 159.04311 0.08000216 159.04311 0.99895713 165.02251
1.560000 0.99891230 164.54033 0.08000337 157.60226 0.08000337 157.60226 0.99891230 164.54033
1.580000 0.99881734 164.05736 0.08000449 156.16120 0.08000449 156.16120 0.99881734 164.05736
1.600000 0.99874823 163.57297 0.08000606 154.71998 0.08000606 154.71998 0.99874823 163.57297
1.620000 0.99866273 163.08342 0.08000904 153.27962 0.08000904 153.27962 0.99866273 163.08342
1.640000 0.99854874 162.59319 0.08001298 151.83834 0.08001298 151.83834 0.99854874 162.59319
1.660000 0.99846921 162.09856 0.08001877 150.39722 0.08001877 150.39722 0.99846921 162.09856
1.680000 0.99833755 161.59844 0.08002681 148.95643 0.08002681 148.95643 0.99833755 161.59844
1.700000 0.99820305 161.09729 0.08003709 147.51519 0.08003709 147.51519 0.99820305 161.09729
1.720000 0.99808438 160.58690 0.08005168 146.07450 0.08005168 146.07450 0.99808438 160.58690
1.740000 0.99789191 160.07203 0.08007115 144.63310 0.08007115 144.63310 0.99789191 160.07203
1.760000 0.99775068 159.55331 0.08009745 143.19219 0.08009745 143.19219 0.99775068 159.55331
1.780000 0.99755817 159.02232 0.08013139 141.75169 0.08013139 141.75169 0.99755817 159.02232
1.800000 0.99732479 158.48770 0.08017647 140.31036 0.08017647 140.31036 0.99732479 158.48770
1.820000 0.99714567 157.94219 0.08023515 138.86929 0.08023515 138.86929 0.99714567 157.94219
1.840000 0.99686308 157.38442 0.08030894 137.42828 0.08030894 137.42828 0.99686308 157.38442
1.860000 0.99657518 156.82081 0.08040502 135.98714 0.08040502 135.98714 0.99657518 156.82081
1.880000 0.99631055 156.23937 0.08052360 134.54617 0.08052360 134.54617 0.99631055 156.23937
1.900000 0.99590325 155.64561 0.08067266 133.10534 0.08067266 133.10534 0.99590325 155.64561
1.920000 0.99556106 155.03887 0.08085675 131.66455 0.08085675 131.66455 0.99556106 155.03887
1.940000 0.99513108 154.40779 0.08108061 130.22304 0.08108061 130.22304 0.99513108 154.40779
1.960000 0.99459260 153.76394 0.08135032 128.78245 0.08135032 128.78245 0.99459260 153.76394
1.980000 0.99411971 153.09446 0.08167396 127.34104 0.08167396 127.34104 0.99411971 153.09446
2.000000 0.99342026 152.39594 0.08205574 125.90067 0.08205574 125.90067 0.99342026 152.39594
2.020000 0.99271363 151.67665 0.08250300 124.45938 0.08250300 124.45938 0.99271363 151.67665
2.040000 0.99194428 150.91504 0.08301992 123.01820 0.08301992 123.01820 0.99194428 150.91504
2.060000 0.99087287 150.11921 0.08361104 121.57747 0.08361104 121.57747 0.99087287 150.11921
2.080000 0.98983554 149.28273 0.08428010 120.13664 0.08428010 120.13664 0.98983554 149.28273
2.100000 0.98849624 148.38354 0.08502891 118.69548 0.08502891 118.69548 0.98849624 148.38354
2.120000 0.98684439 147.43672 0.08585557 117.25448 0.08585557 117.25448 0.98684439 147.43672
2.140000 0.98510191 146.41027 0.08675796 115.81338 0.08675796 115.81338 0.98510191 146.41027
2.160000 0.98268413 145.29305 0.08773018 114.37223 0.08773018 114.37223 0.98268413 145.29305
2.180000 0.97991295 144.08801 0.08876385 112.93144 0.08876385 112.93144 0.97991295 144.08801
2.200000 0.97654720 142.73512 0.08984853 111.49068 0.08984853 111.49068 0.97654720 142.73512
2.220000 0.97194429 141.23736 0.09096899 110.04946 0.09096899 110.04946 0.97194429 141.23736
2.240000 0.96652922 139.54524 0.09210935 108.60844 0.09210935 108.60844 0.96652922 139.54524
2.260000 0.95909081 137.57469 0.09324961 107.16742 0.09324961 107.16742 0.95909081 137.57469
2.280000 0.94904957 135.30310 0.09436946 105.72623 0.09436946 105.72623 0.94904957 135.30310
2.300000 0.93578813 132.56570 0.09544522 104.28521 0.09544522 104.28521 0.93578813 132.56570
2.320000 0.91609967 129.20954 0.09645547 102.84413 0.09645547 102.84413 0.91609967 129.20954
2.340000 0.88774131 125.03881 0.09737630 101.40352 0.09737630 101.40352 0.88774131 125.03881
2.360000 0.84433484 119.56080 0.09818643 99.96214 0.09818643 99.96214 0.84433484 119.56080
2.380000 0.77377262 112.29257 0.09886545 98.52154 0.09886545 98.52154 0.77377262 112.29257
2.400000 0.65917947 102.33601 0.09939700 97.08047 0.09939700 97.08047 0.65917947 102.33601
2.420000 0.46975955 88.46057 0.09976688 95.63951 0.09976688 95.63951 0.46975955 88.46057
2.440000 0.18786884 70.39705 0.09996522 94.19812 0.09996522 94.19812 0.18786884 70.39705
2.460000 0.14253893 -126.66248 0.09998776 92.75733 0.09998776 92.75733 0.14253893 -126.66248
2.480000 0.43154662 -145.33885 0.09983234 91.31611 0.09983234 91.31611 0.43154662 -145.33885
2.500000 0.62787192 -159.44011 0.09950523 89.87563 0.09950523 89.87563 0.62787192 -159.44011
2.520000 0.74899140 -169.50022 0.09901296 88.43450 0.09901296 88.43450 0.74899140 -169.50022
2.540000 0.82416232 -176.93061 0.09836943 86.99315 0.09836943 86.99315 0.82416232 -176.93061
2.560000 0.87014578 177.51880 0.09758989 85.55230 0.09758989 85.55230 0.87014578 177.51880
2.580000 0.90125379 173.28975 0.09669519 84.11164 0.09669519 84.11164 0.90125379 173.28975
2.600000 0.92247491 169.84015 0.09570507 82.67026 0.09570507 82.67026 0.92247491 169.84015
2.620000 0.93677349 167.06704 0.09464367 81.22949 0.09464367 81.22949 0.93677349 167.06704
2.640000 0.94825499 164.73063 0.09353261 79.78830 0.09353261 79.78830 0.94825499 164.73063
2.660000 0.95611057 162.68451 0.09239530 78.34723 0.09239530 78.34723 0.95611057 162.68451
2.680000 0.96223458 160.95421 0.09125352 76.90627 0.09125352 76.90627 0.96223458 160.95421
2.700000 0.96758230 159.37063 0.09012625 75.46573 0.09012625 75.46573 0.96758230 159.37063
2.720000 0.97096357 157.95094 0.08903150 74.02437 0.08903150 74.02437 0.97096357 157.95094
2.740000 0.97436007 156.68551 0.08798276 72.58324 0.08798276 72.58324 0.97436007 156.68551
2.760000 0.97701975 155.46606 0.08699441 71.14246 0.08699441 71.14246 0.97701975 155.46606
2.780000 0.97871004 154.37122 0.08607340 69.70137 0.08607340 69.70137 0.97871004 154.37122
2.800000 0.98092434 153.33255 0.08522753 68.26063 0.08522753 68.26063 0.98092434 153.33255
2.820000 0.98210555 152.32134 0.08445958 66.81931 0.08445958 66.81931 0.98210555 152.32134
2.840000 0.98323988 151.40391 0.08377059 65.37825 0.08377059 65.37825 0.98323988 151.40391
2.860000 0.98464014 150.48262 0.08316033 63.93719 0.08316033 63.93719 0.98464014 150.48262
2.880000 0.98504703 149.60385 0.08262530 62.49618 0.08262530 62.49618 0.98504703 149.60385
2.900000 0.98604466 148.77675 0.08216093 61.05533 0.08216093 61.05533 0.98604466 148.77675
2.920000 0.98670932 147.92371 0.08176372 59.61479 0.08176372 59.61479 0.98670932 147.92371
2.940000 0.98686009 147.13023 0.08142647 58.17363 0.08142647 58.17363 0.98686009 147.13023
2.960000 0.98773534 146.33760 0.08114292 56.73236 0.08114292 56.73236 0.98773534 146.33760
2.980000 0.98778446 145.53288 0.08090858 55.29190 0.08090858 55.29190 0.98778446 145.53288
3.000000 0.98801354 144.78388 0.08071557 53.85019 0.08071557 53.85019 0.98801354 144.78388
