! Touchstone fixture, hand-made, 75 ohm reference
! Date: 2026-09-24
# MHz S DB R 75
1010.000000 -0.003221715 179.012677218
1020.100000 -0.003173202 178.825703046
1030.200000 -0.003105921 178.639465443
1040.300000 -0.003084099 178.454708995
1050.400000 -0.003111009 178.271423887
1060.500000 -0.003132000 178.089619333
1070.600000 -0.003150295 177.909290778
1080.700000 -0.003104337 177.729692835
1090.800000 -0.003057266 177.551183599
1100.900000 -0.003069251 177.373732062
1111.000000 -0.003146813 177.197709526
1121.100000 -0.003115048 177.022813522
1131.200000 -0.003087120 176.848605225
1141.300000 -0.003064484 176.675079806
1151.400000 -0.003111646 176.502578424
1161.500000 -0.003167459 176.330746412
1171.600000 -0.003187245 176.160378734
1181.700000 -0.003161852 175.990713347
1191.800000 -0.003150406 175.821708390
1201.900000 -0.003141107 175.652597847
1212.000000 -0.003218797 175.484853167
1222.100000 -0.003263937 175.318176656
1232.200000 -0.003263993 175.151807556
1242.300000 -0.003284773 174.986075565
1252.400000 -0.003254346 174.820267631
1262.500000 -0.003311930 174.655415819
1272.600000 -0.003393643 174.491184851
1282.700000 -0.003443283 174.327625781
1292.800000 -0.003462195 174.164737832
1302.900000 -0.003481900 174.001323848
1313.000000 -0.003529418 173.838515576
1323.100000 -0.003605991 173.676307243
1333.200000 -0.003712851 173.514693041
1343.300000 -0.003726538 173.353421772
1353.400000 -0.003751976 173.191984007
1363.500000 -0.003799458 173.030752673
1373.600000 -0.003926673 172.869651278
1383.700000 -0.004030649 172.709192395
1393.800000 -0.004112663 172.549374792
1403.900000 -0.004082339 172.389142759
1414.000000 -0.004178967 172.228568258
1424.100000 -0.004299950 172.068171529
1434.200000 -0.004445721 171.907947138
1444.300000 -0.004584672 171.748723603
1454.400000 -0.004598266 171.588704599
1464.500000 -0.004681593 171.428390724
1474.600000 -0.004777363 171.267859510
1484.700000 -0.005025771 171.107678640
1494.800000 -0.005130100 170.947908769
1504.900000 -0.005247413 170.787908924
1515.000000 -0.005306517 170.627393692
1525.100000 -0.005476452 170.466079046
1535.200000 -0.005728547 170.304795052
1545.300000 -0.005964765 170.144100874
1555.400000 -0.006099542 169.983348753
1565.500000 -0.006199664 169.821223018
1575.600000 -0.006365827 169.658735662
1585.700000 -0.006653900 169.495772661
1595.800000 -0.006926346 169.333381532
1605.900000 -0.007135358 169.170446400
1616.000000 -0.007336193 169.006859004
1626.100000 -0.007510877 168.842244942
1636.200000 -0.007843032 168.676634171
1646.300000 -0.008197360 168.511091271
1656.400000 -0.008518104 168.345726508
1666.500000 -0.008752269 168.179431010
1676.600000 -0.008991892 168.011599939
1686.700000 -0.009326600 167.842843593
1696.800000 -0.009773389 167.673516922
1706.900000 -0.010238693 167.504221661
1717.000000 -0.010573179 167.334468700
1727.100000 -0.010865610 167.162413701
1737.200000 -0.011281393 166.988895073
1747.300000 -0.011857583 166.814628317
1757.400000 -0.012426635 166.639991547
1767.500000 -0.012932556 166.465114786
1777.600000 -0.013271844 166.288173211
1787.700000 -0.013716603 166.108485395
1797.800000 -0.014422441 165.927714537
1807.900000 -0.015167108 165.746395428
1818.000000 -0.015817874 165.564441570
1828.100000 -0.016340618 165.380259086
1838.200000 -0.016895407 165.193411006
1848.300000 -0.017686403 165.004162646
1858.400000 -0.018590249 164.813655769
1868.500000 -0.019541401 164.622898135
1878.600000 -0.020321441 164.429509851
1888.700000 -0.021009902 164.232824640
1898.800000 -0.021919728 164.032767751
1908.900000 -0.023116681 163.830380063
1919.000000 -0.024373838 163.627147223
1929.100000 -0.025456970 163.421593570
1939.200000 -0.026447504 163.212155361
1949.300000 -0.027581032 162.997629143
1959.400000 -0.029054561 162.779945056
1969.500000 -0.030752226 162.560277554
1979.600000 -0.032321918 162.338396717
1989.700000 -0.033704818 162.111824301
1999.800000 -0.035209504 161.878600097
2009.900000 -0.037116969 161.639900552
2020.000000 -0.039474575 161.398129536
2030.100000 -0.041737306 161.153294966
2040.200000 -0.043803400 160.902556173
2050.300000 -0.045940426 160.643519681
2060.400000 -0.048536268 160.376910652
2070.500000 -0.051742609 160.103821329
2080.600000 -0.055129706 159.826612219
2090.700000 -0.058359089 159.542308752
2100.800000 -0.061558221 159.247034556
2110.900000 -0.065308553 158.939683354
2121.000000 -0.069880381 158.622628605
2131.100000 -0.075031522 158.297977821
2141.200000 -0.080185137 157.963582389
2151.300000 -0.085334407 157.614409748
2161.400000 -0.091144467 157.247202033
2171.500000 -0.098219061 156.863131988
2181.600000 -0.106404837 156.465210446
2191.700000 -0.115084716 156.052706864
2201.800000 -0.124047417 155.618992507
2211.900000 -0.133848728 155.157029441
2222.000000 -0.145681155 154.665436972
2232.100000 -0.159721574 154.148634274
2242.200000 -0.175513231 153.605413291
2252.300000 -0.192381371 153.027024033
2262.400000 -0.211144436 152.402007049
2272.500000 -0.233570368 151.723516032
2282.600000 -0.260819426 150.992786085
2292.700000 -0.292860205 150.208470130
2302.800000 -0.329216203 149.357728467
2312.900000 -0.371231852 148.418970909
2323.000000 -0.422155820 147.371818957
2333.100000 -0.485825063 146.206532971
2343.200000 -0.564954760 144.915173725
2353.300000 -0.661778368 143.472421076
2363.400000 -0.781445312 141.830407920
2373.500000 -0.934816012 139.932543624
2383.600000 -1.138555410 137.734920870
2393.700000 -1.413616111 135.201487203
2403.800000 -1.788238320 132.282143168
2413.900000 -2.308813954 128.904703926
2424.000000 -3.059166209 125.030915075
2434.100000 -4.186723465 120.833907210
2444.200000 -5.940330093 117.132293601
2454.300000 -8.727965465 116.713703195
2464.400000 -12.898509637 129.790390418
2474.500000 -14.528831845 174.367168730
2484.600000 -10.400860782 -159.435422581
2494.700000 -7.054187519 -156.092090547
2504.800000 -4.943805450 -158.766840585
2514.900000 -3.599597249 -162.734022685
2525.000000 -2.715602757 -166.624671005
2535.100000 -2.109172642 -170.075471929
2545.200000 -1.674935868 -173.070393496
2555.300000 -1.355377900 -175.681748668
2565.400000 -1.118337981 -177.964080713
2575.500000 -0.941282853 -179.943573050
2585.600000 -0.804928143 178.350163247
2595.700000 -0.694526284 176.861573068
2605.800000 -0.602883800 175.530383409
2615.900000 -0.528154201 174.319562003
2626.000000 -0.469174394 173.223040603
2636.100000 -0.421766787 172.242337868
2646.200000 -0.380813413 171.362792283
2656.300000 -0.343456515 170.553635866
2666.400000 -0.310670549 169.790888808
2676.500000 -0.284140471 169.072550829
2686.600000 -0.263180232 168.410644666
2696.700000 -0.244639833 167.805501103
2706.800000 -0.226346747 167.240256670
2716.900000 -0.208821393 166.695442001
2727.000000 -0.194278352 166.166293179
2737.100000 -0.183339079 165.665499765
2747.200000 -0.174158670 165.201153909
2757.300000 -0.164372522 164.764480239
2767.400000 -0.153892674 164.338687553
2777.500000 -0.144627956 163.915819547
2787.600000 -0.138081563 163.505609937
2797.700000 -0.133363079 163.119638329
2807.800000 -0.128111132 162.755947478
2817.900000 -0.121461768 162.400720978
2828.000000 -0.114920219 162.043054347
2838.100000 -0.110522189 161.687262863
2848.200000 -0.107988771 161.347511030
2858.300000 -0.105436319 161.026677412
2868.400000 -0.101304846 160.715047485
2878.500000 -0.096466629 160.398764127
2888.600000 -0.092984261 160.078494513
2898.700000 -0.091605930 159.765967847
2908.800000 -0.090702630 159.470053100
2918.900000 -0.088406903 159.185101885
2929.000000 -0.084789597 158.896085340
2939.100000 -0.081781740 158.598611441
2949.200000 -0.080907109 158.302844316
2959.300000 -0.081064332 158.020299524
2969.400000 -0.080156113 157.749837264
2979.500000 -0.077572602 157.478420263
2989.600000 -0.074949239 157.196162774
2999.700000 -0.074082825 156.910068089
3009.800000 -0.074818689 156.632837028
3019.900000 -0.075115512 156.368805073
3030.000000 -0.073567576 156.107328730
