! four-port, lower-case option line, DB format: diagonal -20 dB (0.1) at 0 deg,
! off-diagonal -6.0206 dB (0.5) at 10 i + j deg; comments between and after the rows
# mhz s db r 50
1000  -20 0  -6.020599913 12  -6.020599913 13  -6.020599913 14   ! row 1
      -6.020599913 21  -20 0  -6.020599913 23  -6.020599913 24
! a comment line between rows
      -6.020599913 31  -6.020599913 32  -20 0  -6.020599913 34
      -6.020599913 41  -6.020599913 42  -6.020599913 43  -20 0
2000  -20 0  -6.020599913 12  -6.020599913 13  -6.020599913 14
      -6.020599913 21  -20 0  -6.020599913 23  -6.020599913 24
      -6.020599913 31  -6.020599913 32  -20 0  -6.020599913 34
      -6.020599913 41  -6.020599913 42  -6.020599913 43  -20 0   ! last row
